
Gurobi 10.0.1 (linux64) logging started Sun Nov 26 16:09:30 2023

Set parameter LogFile to value "ArtificialInstance/ExperimentV2/S4T4K2/AdRo/gurobiDoRo50.txt"
Gurobi Optimizer version 10.0.1 build v10.0.1rc0 (linux64)

CPU model: AMD EPYC 7H12 64-Core Processor, instruction set [SSE2|AVX|AVX2]
Thread count: 128 physical cores, 128 logical processors, using up to 32 threads

Academic license 656792 - for non-commercial use only - registered to b.___@student.vu.nl
Optimize a model with 11354 rows, 10816 columns and 42051 nonzeros
Model fingerprint: 0xc32998c2
Variable types: 1 continuous, 10815 integer (10815 binary)
Coefficient statistics:
  Matrix range     [1e+00, 4e+01]
  Objective range  [1e+00, 2e+01]
  Bounds range     [1e+00, 1e+00]
  RHS range        [1e+00, 1e+00]
Presolve removed 4034 rows and 3716 columns
Presolve time: 0.14s
Presolved: 7320 rows, 7100 columns, 27642 nonzeros
Variable types: 1 continuous, 7099 integer (7099 binary)

Root relaxation: objective 9.939860e+01, 4077 iterations, 0.25 seconds (0.18 work units)

    Nodes    |    Current Node    |     Objective Bounds      |     Work
 Expl Unexpl |  Obj  Depth IntInf | Incumbent    BestBd   Gap | It/Node Time

H    0     0                      99.3985970   48.19922  51.5%     -    0s
     0     0          -    0        99.39860   99.39860  0.00%     -    0s

Explored 1 nodes (5258 simplex iterations) in 0.45 seconds (0.33 work units)
Thread count was 32 (of 128 available processors)

Solution count 1: 99.3986 

Optimal solution found (tolerance 1.00e-04)
Best objective 9.939859695721e+01, best bound 9.939859695721e+01, gap 0.0000%
